NAME /Users/henri/Research/solvers/instances/idol-instances/robust/collection/spp_dkp_Lefebvre_et_al_2026/shortest_path_7_1/uncertainty_sets/discrete_knapsack
ROWS
 N  OBJ
 L  primal_lower
COLUMNS
    MARKER    'MARKER'                 'INTORG'
    y[0,2]     OBJ        0
    y[0,2]     primal_lower -0.57
    y[0,3]     OBJ        0
    y[0,3]     primal_lower -3.01
    y[0,5]     OBJ        0
    y[0,5]     primal_lower -0.66
    y[0,6]     OBJ        0
    y[0,6]     primal_lower -1.19
    y[1,2]     OBJ        0
    y[1,2]     primal_lower -1.62
    y[1,3]     OBJ        0
    y[1,3]     primal_lower -4.25
    y[1,4]     OBJ        0
    y[1,4]     primal_lower -3.29
    y[1,6]     OBJ        0
    y[1,6]     primal_lower -2.67
    y[2,0]     OBJ        0
    y[2,0]     primal_lower -0.14
    y[2,1]     OBJ        0
    y[2,1]     primal_lower -3.63
    y[2,3]     OBJ        0
    y[2,3]     primal_lower -1.95
    y[2,4]     OBJ        0
    y[2,4]     primal_lower -3.96
    y[2,5]     OBJ        0
    y[2,5]     primal_lower -1.26
    y[2,6]     OBJ        0
    y[2,6]     primal_lower -0.28
    y[3,0]     OBJ        0
    y[3,0]     primal_lower -4.28
    y[3,1]     OBJ        0
    y[3,1]     primal_lower -1.09
    y[3,2]     OBJ        0
    y[3,2]     primal_lower -2
    y[3,4]     OBJ        0
    y[3,4]     primal_lower -1.56
    y[3,5]     OBJ        0
    y[3,5]     primal_lower -0.38
    y[3,6]     OBJ        0
    y[3,6]     primal_lower -4.17
    y[4,1]     OBJ        0
    y[4,1]     primal_lower -4.19
    y[4,2]     OBJ        0
    y[4,2]     primal_lower -4.8
    y[4,3]     OBJ        0
    y[4,3]     primal_lower -1.9
    y[4,6]     OBJ        0
    y[4,6]     primal_lower -4.72
    y[5,0]     OBJ        0
    y[5,0]     primal_lower -2.2
    y[5,2]     OBJ        0
    y[5,2]     primal_lower -3.31
    y[5,3]     OBJ        0
    y[5,3]     primal_lower -0.41
    y[5,6]     OBJ        0
    y[5,6]     primal_lower -4.43
    y[6,0]     OBJ        0
    y[6,0]     primal_lower -1.47
    y[6,1]     OBJ        0
    y[6,1]     primal_lower -1.3
    y[6,2]     OBJ        0
    y[6,2]     primal_lower -0.03
    y[6,3]     OBJ        0
    y[6,3]     primal_lower -2.68
    y[6,4]     OBJ        0
    y[6,4]     primal_lower -2.35
    y[6,5]     OBJ        0
    y[6,5]     primal_lower -3.14
    u[0,2]     OBJ        0
    u[0,2]     primal_lower 58
    u[0,3]     OBJ        0
    u[0,3]     primal_lower 35
    u[0,5]     OBJ        0
    u[0,5]     primal_lower 35
    u[0,6]     OBJ        0
    u[0,6]     primal_lower 51
    u[1,2]     OBJ        0
    u[1,2]     primal_lower 73
    u[1,3]     OBJ        0
    u[1,3]     primal_lower 49
    u[1,4]     OBJ        0
    u[1,4]     primal_lower 30
    u[1,6]     OBJ        0
    u[1,6]     primal_lower 85
    u[2,0]     OBJ        0
    u[2,0]     primal_lower 39
    u[2,1]     OBJ        0
    u[2,1]     primal_lower 82
    u[2,3]     OBJ        0
    u[2,3]     primal_lower 92
    u[2,4]     OBJ        0
    u[2,4]     primal_lower 58
    u[2,5]     OBJ        0
    u[2,5]     primal_lower 4
    u[2,6]     OBJ        0
    u[2,6]     primal_lower 58
    u[3,0]     OBJ        0
    u[3,0]     primal_lower 90
    u[3,1]     OBJ        0
    u[3,1]     primal_lower 76
    u[3,2]     OBJ        0
    u[3,2]     primal_lower 8
    u[3,4]     OBJ        0
    u[3,4]     primal_lower 95
    u[3,5]     OBJ        0
    u[3,5]     primal_lower 57
    u[3,6]     OBJ        0
    u[3,6]     primal_lower 67
    u[4,1]     OBJ        0
    u[4,1]     primal_lower 18
    u[4,2]     OBJ        0
    u[4,2]     primal_lower 96
    u[4,3]     OBJ        0
    u[4,3]     primal_lower 70
    u[4,6]     OBJ        0
    u[4,6]     primal_lower 28
    u[5,0]     OBJ        0
    u[5,0]     primal_lower 55
    u[5,2]     OBJ        0
    u[5,2]     primal_lower 24
    u[5,3]     OBJ        0
    u[5,3]     primal_lower 95
    u[5,6]     OBJ        0
    u[5,6]     primal_lower 11
    u[6,0]     OBJ        0
    u[6,0]     primal_lower 95
    u[6,1]     OBJ        0
    u[6,1]     primal_lower 24
    u[6,2]     OBJ        0
    u[6,2]     primal_lower 3
    u[6,3]     OBJ        0
    u[6,3]     primal_lower 77
    u[6,4]     OBJ        0
    u[6,4]     primal_lower 68
    u[6,5]     OBJ        0
    u[6,5]     primal_lower 51
    MARKER    'MARKER'                 'INTEND'
RHS
    RHS       primal_lower 168
BOUNDS
 LI BND       y[0,2]     0
 UI BND       y[0,2]     1
 LI BND       y[0,3]     0
 UI BND       y[0,3]     1
 LI BND       y[0,5]     0
 UI BND       y[0,5]     1
 LI BND       y[0,6]     0
 UI BND       y[0,6]     1
 LI BND       y[1,2]     0
 UI BND       y[1,2]     1
 LI BND       y[1,3]     0
 UI BND       y[1,3]     1
 LI BND       y[1,4]     0
 UI BND       y[1,4]     1
 LI BND       y[1,6]     0
 UI BND       y[1,6]     1
 LI BND       y[2,0]     0
 UI BND       y[2,0]     1
 LI BND       y[2,1]     0
 UI BND       y[2,1]     1
 LI BND       y[2,3]     0
 UI BND       y[2,3]     1
 LI BND       y[2,4]     0
 UI BND       y[2,4]     1
 LI BND       y[2,5]     0
 UI BND       y[2,5]     1
 LI BND       y[2,6]     0
 UI BND       y[2,6]     1
 LI BND       y[3,0]     0
 UI BND       y[3,0]     1
 LI BND       y[3,1]     0
 UI BND       y[3,1]     1
 LI BND       y[3,2]     0
 UI BND       y[3,2]     1
 LI BND       y[3,4]     0
 UI BND       y[3,4]     1
 LI BND       y[3,5]     0
 UI BND       y[3,5]     1
 LI BND       y[3,6]     0
 UI BND       y[3,6]     1
 LI BND       y[4,1]     0
 UI BND       y[4,1]     1
 LI BND       y[4,2]     0
 UI BND       y[4,2]     1
 LI BND       y[4,3]     0
 UI BND       y[4,3]     1
 LI BND       y[4,6]     0
 UI BND       y[4,6]     1
 LI BND       y[5,0]     0
 UI BND       y[5,0]     1
 LI BND       y[5,2]     0
 UI BND       y[5,2]     1
 LI BND       y[5,3]     0
 UI BND       y[5,3]     1
 LI BND       y[5,6]     0
 UI BND       y[5,6]     1
 LI BND       y[6,0]     0
 UI BND       y[6,0]     1
 LI BND       y[6,1]     0
 UI BND       y[6,1]     1
 LI BND       y[6,2]     0
 UI BND       y[6,2]     1
 LI BND       y[6,3]     0
 UI BND       y[6,3]     1
 LI BND       y[6,4]     0
 UI BND       y[6,4]     1
 LI BND       y[6,5]     0
 UI BND       y[6,5]     1
 LI BND       u[0,2]     0
 UI BND       u[0,2]     1
 LI BND       u[0,3]     0
 UI BND       u[0,3]     1
 LI BND       u[0,5]     0
 UI BND       u[0,5]     1
 LI BND       u[0,6]     0
 UI BND       u[0,6]     1
 LI BND       u[1,2]     0
 UI BND       u[1,2]     1
 LI BND       u[1,3]     0
 UI BND       u[1,3]     1
 LI BND       u[1,4]     0
 UI BND       u[1,4]     1
 LI BND       u[1,6]     0
 UI BND       u[1,6]     1
 LI BND       u[2,0]     0
 UI BND       u[2,0]     1
 LI BND       u[2,1]     0
 UI BND       u[2,1]     1
 LI BND       u[2,3]     0
 UI BND       u[2,3]     1
 LI BND       u[2,4]     0
 UI BND       u[2,4]     1
 LI BND       u[2,5]     0
 UI BND       u[2,5]     1
 LI BND       u[2,6]     0
 UI BND       u[2,6]     1
 LI BND       u[3,0]     0
 UI BND       u[3,0]     1
 LI BND       u[3,1]     0
 UI BND       u[3,1]     1
 LI BND       u[3,2]     0
 UI BND       u[3,2]     1
 LI BND       u[3,4]     0
 UI BND       u[3,4]     1
 LI BND       u[3,5]     0
 UI BND       u[3,5]     1
 LI BND       u[3,6]     0
 UI BND       u[3,6]     1
 LI BND       u[4,1]     0
 UI BND       u[4,1]     1
 LI BND       u[4,2]     0
 UI BND       u[4,2]     1
 LI BND       u[4,3]     0
 UI BND       u[4,3]     1
 LI BND       u[4,6]     0
 UI BND       u[4,6]     1
 LI BND       u[5,0]     0
 UI BND       u[5,0]     1
 LI BND       u[5,2]     0
 UI BND       u[5,2]     1
 LI BND       u[5,3]     0
 UI BND       u[5,3]     1
 LI BND       u[5,6]     0
 UI BND       u[5,6]     1
 LI BND       u[6,0]     0
 UI BND       u[6,0]     1
 LI BND       u[6,1]     0
 UI BND       u[6,1]     1
 LI BND       u[6,2]     0
 UI BND       u[6,2]     1
 LI BND       u[6,3]     0
 UI BND       u[6,3]     1
 LI BND       u[6,4]     0
 UI BND       u[6,4]     1
 LI BND       u[6,5]     0
 UI BND       u[6,5]     1
ENDATA
